c  Example1.dimacs
p cnf 3 2
1 -3 0
2 3 -1 0
1 2 3 4 5 6 7 8 0
9 10 11 12 13 14 15 0
-9 -10 -11 -12 -13 -14 18 17 3 -3 2 -1 -5 -4 -7 -6 0
5 6 7 8 9 1 -5 -4 -7 -9 -2 -3 -6 -4 -7 -5 -5 -4 4 5 6 8 6 1 0
1 5 4 8 63 4 5 6 13 -5 4 -4 -7 456 0
1000 0
-1000 0